5
4
3
10
5
7
6
1
6
10
3
7
5
4
4
3
1
4
1
1
9
9
1
9
7
3
4
7
4
10
4
10
5
8
1
9
6
5
9
8
7
7
6
3
9
6
2
8
6
1
1
6
2
3
6
4
9
5
4
8
10
3
8
1
9
2
7
7
3
3
3
1
2
10
4
2
5
9
6
6
6
4
9
9
3
2
1
8
3
6
9
7
6
5
3
4
6
7
7
4
